WARNING: for repeatability, setting FPU to use double precision
============================[ Problem Statistics ]=============================
|                                                                             |
|  Number of variables:           100                                         |
|  Number of clauses:             449                                         |
|  Parse time:                   0.00 s                                       |
|  Simplification time:          0.00 s                                       |
|                                                                             |
============================[ Search Statistics ]==============================
| Conflicts |          ORIGINAL         |          LEARNT          | Progress |
|           |    Vars  Clauses Literals |    Limit  Clauses Lit/Cl |          |
===============================================================================
|       100 |     100      448     1343 |      164      100      7 |  0.010 % |
|       250 |      98      441     1322 |      180      107      5 |  2.010 % |
===============================================================================
restarts              : 3
conflicts             : 367            (215629 /sec)
decisions             : 473            (0.00 % random) (277908 /sec)
propagations          : 8771           (5153349 /sec)
conflict literals     : 2223           (20.04 % deleted)
Memory used           : 13.00 MB
CPU time              : 0.001702 s

SATISFIABLE
